
Gurobi 7.0.1 (linux64) logging started Sun Jul  2 21:15:19 2017

Optimize a model with 21691 rows, 14464 columns and 73015 nonzeros
Variable types: 0 continuous, 14464 integer (14464 binary)
Coefficient statistics:
  Matrix range     [1e+00, 9e+00]
  Objective range  [1e+00, 1e+00]
  Bounds range     [1e+00, 1e+00]
  RHS range        [1e+00, 5e+01]
Presolve removed 21350 rows and 14165 columns
Presolve time: 0.07s
Presolved: 341 rows, 299 columns, 2588 nonzeros
Variable types: 0 continuous, 299 integer (299 binary)

Root relaxation: objective 6.000000e+00, 33 iterations, 0.00 seconds

    Nodes    |    Current Node    |     Objective Bounds      |     Work
 Expl Unexpl |  Obj  Depth IntInf | Incumbent    BestBd   Gap | It/Node Time

*    0     0               0       6.0000000    6.00000  0.00%     -    0s

Cutting planes:
  Lazy constraints: 4

Explored 0 nodes (33 simplex iterations) in 0.15 seconds
Thread count was 12 (of 12 available processors)

Solution count 1: 6 
Pool objective bound 6

Optimal solution found (tolerance 1.00e-04)
Best objective 6.000000000000e+00, best bound 6.000000000000e+00, gap 0.0000%
Optimize a model with 21691 rows, 14464 columns and 73015 nonzeros
Variable types: 0 continuous, 14464 integer (14464 binary)
Coefficient statistics:
  Matrix range     [1e+00, 9e+00]
  Objective range  [3e-01, 7e-01]
  Bounds range     [1e+00, 1e+00]
  RHS range        [1e+00, 5e+01]
Presolve removed 21350 rows and 14165 columns
Presolve time: 0.06s
Presolved: 341 rows, 299 columns, 2588 nonzeros

Loaded MIP start with objective -4.44089e-16

Variable types: 0 continuous, 299 integer (299 binary)

Root relaxation: cutoff, 24 iterations, 0.00 seconds

    Nodes    |    Current Node    |     Objective Bounds      |     Work
 Expl Unexpl |  Obj  Depth IntInf | Incumbent    BestBd   Gap | It/Node Time

     0     0     cutoff    0        -0.00000    0.10000      -     -    0s

Explored 0 nodes (24 simplex iterations) in 0.10 seconds
Thread count was 12 (of 12 available processors)

Solution count 1: -4.44089e-16 
Pool objective bound -0

Optimal solution found (tolerance 1.00e-04)
Best objective -4.440892098501e-16, best bound -0.000000000000e+00, gap -
